Solving original (integer) problem with strategy gdp.binary_multiplication...
--- Job model.gms Start 02/18/26 23:09:48 52.2.0 d8e408be LEX-LEG x86 64bit/Linux
--- Applying:
    /package/gams/52.2/gmsprmun.txt
--- GAMS Parameters defined
    Input /local/scratch/a/sgusev/repos/k_means/data/gams_gurobi_gdp.binary_multiplication/no_mode/2026-02-18_23-09-48/original/model.gms
    Output /local/scratch/a/sgusev/repos/k_means/data/gams_gurobi_gdp.binary_multiplication/no_mode/2026-02-18_23-09-48/original/output.lst
    ScrDir /local/scratch/a/sgusev/repos/k_means/data/gams_gurobi_gdp.binary_multiplication/no_mode/2026-02-18_23-09-48/original/225a/
    SysDir /package/gams/52.2/
    CurDir /local/scratch/a/sgusev/repos/k_means/data/gams_gurobi_gdp.binary_multiplication/no_mode/2026-02-18_23-09-48/original/
    LogOption 3
    AppendLog 1
Licensee: David Bernal / SECQUOIA Research Group         G251008+0003Ac-GEN
          Purdue University, Davidson School of Chemical EngineeringDCE4838
          225a/gamslice.dat
          5a82958a-fbca-4a23
          node:66820903 mem:995 cores:48 ipport:52397 v:2                  
          Evaluation license: Not for commercial or production use
          The time-limited license stops working on : Jun 30, 2027
System information: 48 physical cores and 995 Gb physical memory detected
GAMS 52.2.0   Copyright (C) 1987-2025 GAMS Development. All rights reserved
--- Starting compilation
--- model.gms(183) 2 Mb
--- $echo File /local/scratch/a/sgusev/repos/k_means/data/gams_gurobi_gdp.binary_multiplication/no_mode/2026-02-18_23-09-48/original/gurobi.opt
--- model.gms(339) 2 Mb
--- Starting execution: elapsed 0:00:00.005
--- model.gms(192) 3 Mb
--- Generating MINLP model GAMS_MODEL
--- model.gms(196) 5 Mb
---   43 rows  47 columns  165 non-zeroes
---   330 nl-code  120 nl-non-zeroes
---   30 discrete-columns
--- Range statistics (absolute non-zero finite values)
--- RHS       [min, max] : [ 1.000E+00, 1.000E+00] - Zero values observed as well
--- Bound     [min, max] : [ 1.000E+00, 4.000E+01] - Zero values observed as well
--- Matrix    [min, max] : [ 2.275E-01, 1.495E+00] - Zero values observed as well
--- model.gms(196) 3 Mb
--- Executing GUROBI (Solvelink=5): elapsed 0:00:00.008
Reading parameter(s) from "/local/scratch/a/sgusev/repos/k_means/data/gams_gurobi_gdp.binary_multiplication/no_mode/2026-02-18_23-09-48/original/gurobi.opt"
>>  NonConvex 2
>>  Threads 1
>>  MIPGap 1e-06
>>  MIPGapAbs 1e-10
>>  FeasibilityTol 1e-06
>>  OptimalityTol 1e-06
>>  IntFeasTol 1e-05
Finished reading from "/local/scratch/a/sgusev/repos/k_means/data/gams_gurobi_gdp.binary_multiplication/no_mode/2026-02-18_23-09-48/original/gurobi.opt"

... GRB_LICENSE_FILE = /local/scratch/a/sgusev/gurobi.lic

    Gurobi           52.2.0 d8e408be Dec 8, 2025           LEG x86 64bit/Linux    

... GAMS/Gurobi Link license.
... GMO Q Extraction (ThreePass): 0.00s

    Gurobi Optimizer version 13.0.0 build v13.0.0rc1 (linux64 - "Oracle Linux Server 9.7")
    
    CPU model: AMD EPYC 7643 48-Core Processor, instruction set [SSE2|AVX|AVX2]
    Thread count: 48 physical cores, 96 logical processors, using up to 1 threads
    
    Non-default parameters:
    TimeLimit  300
    MIPGap  1e-06
    LogToConsole  0
    NonConvex  2
    Threads  1
    
    Optimize a model with 42 rows, 76 columns and 64 nonzeros (Min)
    Model fingerprint: 0x9c9d9cf3
    Model has 10 linear objective coefficients
    Model has 30 general nonlinear constraints (90 nonlinear terms)
    Variable types: 46 continuous, 30 integer (0 binary)
    Coefficient statistics:
      Matrix range     [1e+00, 1e+00]
      Objective range  [1e+00, 1e+00]
      Bounds range     [1e+00, 4e+01]
      RHS range        [1e+00, 1e+00]
      NLCon coe range  [1e-01, 1e+00]
    Presolve model has 30 nlconstr
    Added 150 variables to disaggregate expressions
    Presolve removed 30 rows and 0 columns
    Presolve time: 0.00s
    Presolved: 402 rows, 257 columns, 934 nonzeros
    Presolved model has 60 bilinear constraint(s)
    
    Solving non-convex MIQCP to global optimality
    
    Variable types: 227 continuous, 30 integer (30 binary)
    Found heuristic solution: objective 8.1624711
    
    Root relaxation: objective 0.000000e+00, 29 iterations, 0.00 seconds (0.00 work units)
    
        Nodes    |    Current Node    |     Objective Bounds      |     Work
     Expl Unexpl |  Obj  Depth IntInf | Incumbent    BestBd   Gap | It/Node Time
    
         0     0    0.00000    0   60    8.16247    0.00000   100%     -    0s
    H    0     0                       8.0736652    0.00000   100%     -    0s
         0     0    0.00000    0   72    8.07367    0.00000   100%     -    0s
         0     0    0.00000    0   76    8.07367    0.00000   100%     -    0s
         0     0    0.00000    0   70    8.07367    0.00000   100%     -    0s
         0     0    0.00000    0   70    8.07367    0.00000   100%     -    0s
         0     0    0.00000    0   74    8.07367    0.00000   100%     -    0s
         0     0    0.00000    0   74    8.07367    0.00000   100%     -    0s
         0     0    0.00000    0   74    8.07367    0.00000   100%     -    0s
         0     0    0.00000    0   62    8.07367    0.00000   100%     -    0s
    H    0     0                       3.4657667    0.00000   100%     -    0s
    H    0     0                       3.0475915    0.00000   100%     -    0s
    H    0     0                       2.5129447    0.00000   100%     -    0s
         0     2    0.00000    0   62    2.51294    0.00000   100%     -    0s
    H    2     2                       2.4351944    0.00000   100%   7.5    0s
    H    4     4                       1.8405377    0.00000   100%   7.2    0s
    H  156    39                       1.7800648    0.00000   100%  15.1    0s
    *  861   212              65       1.7800627    1.55310  12.8%  10.5    0s
    *  865   208              67       1.7800608    1.55310  12.8%  10.4    0s
    * 7560   165              64       1.7800564    1.77998  0.00%   5.7    2s
    * 7565   164              66       1.7800545    1.77998  0.00%   5.7    2s
    
    Cutting planes:
      Gomory: 4
      Implied bound: 7
      MIR: 2
      Flow cover: 22
      RLT: 5
      Relax-and-lift: 2
    
    Explored 8604 nodes (48764 simplex iterations) in 2.94 seconds (1.74 work units)
    Thread count was 1 (of 96 available processors)
    
    Solution count 10: 1.78005 1.78006 1.78006 ... 3.46577
    
    Optimal solution found (tolerance 1.00e-06)
    Warning: max constraint violation (1.7893e-06) exceeds tolerance
    Warning: max general constraint violation (1.7893e-06) exceeds tolerance
    Best objective 1.780054529067e+00, best bound 1.780053212600e+00, gap 0.0001%
    
    User-callback calls 8623, time in user-callback 0.00 sec

... Solving fixed model...

    Gurobi Optimizer version 13.0.0 build v13.0.0rc1 (linux64 - "Oracle Linux Server 9.7")
    
    CPU model: AMD EPYC 7643 48-Core Processor, instruction set [SSE2|AVX|AVX2]
    Thread count: 48 physical cores, 96 logical processors, using up to 1 threads
    
    Non-default parameters:
    TimeLimit  300
    MIPGap  1e-06
    LogToConsole  0
    NonConvex  2
    Threads  1
    
    Optimize a model with 42 rows, 76 columns and 64 nonzeros (Min)
    Model fingerprint: 0xb3a1ae28
    Model has 10 linear objective coefficients
    Coefficient statistics:
      Matrix range     [1e+00, 1e+00]
      Objective range  [1e+00, 1e+00]
      Bounds range     [2e-02, 1e+00]
      RHS range        [1e+00, 1e+00]
    Presolve removed 42 rows and 76 columns
    Presolve time: 0.00s
    Presolve: All rows and columns removed
    Iteration    Objective       Primal Inf.    Dual Inf.      Time
           0    1.7800545e+00   0.000000e+00   0.000000e+00      0s
    
    Solved in 0 iterations and 0.00 seconds (0.00 work units)
    Optimal objective  1.780054529e+00
    
    User-callback calls 0, time in user-callback 0.00 sec

--- Reading solution for model GAMS_MODEL
***
*** Solver did not provide marginals for model GAMS_MODEL
***
--- Executing after solve: elapsed 0:00:02.994
--- model.gms(199) 3 Mb
--- model.gms(339) 5 Mb
--- Putfile results /local/scratch/a/sgusev/repos/k_means/data/gams_gurobi_gdp.binary_multiplication/no_mode/2026-02-18_23-09-48/original/results.dat
--- Putfile statresults /local/scratch/a/sgusev/repos/k_means/data/gams_gurobi_gdp.binary_multiplication/no_mode/2026-02-18_23-09-48/original/resultsstat.dat
*** Status: Normal completion
--- Job model.gms Stop 02/18/26 23:09:51 elapsed 0:00:02.994
Original problem solved. Time taken: 3.4482688903808594 seconds
Original objective value: 1.780054529066939
